data/evidence/ss_sat/source_bundles/legacy_roots/cadical_drat_trace_typed_c_root/external_solver_evidence_bundle_strong_cadical/horn_chain_8.cadical.drat
2 0
d -1 2 0
3 0
d -2 3 0
4 0
d -3 4 0
5 0
d -4 5 0
6 0
d -5 6 0
7 0
d -6 7 0
8 0
d -7 8 0
0
d -8 0
